certificates/rado_a14_c286_N52.cnf
c Rad2 upper bound instance: x1 + 14*x2 - x3 = 286, interval [1,52]
p cnf 52 384
1 9 21 0
-1 -9 -21 0
1 22 23 0
-1 -22 -23 0
1 23 37 0
-1 -23 -37 0
1 24 51 0
-1 -24 -51 0
2 10 21 0
-2 -10 -21 0
2 22 24 0
-2 -22 -24 0
2 23 38 0
-2 -23 -38 0
2 24 52 0
-2 -24 -52 0
3 11 21 0
-3 -11 -21 0
3 22 25 0
-3 -22 -25 0
3 23 39 0
-3 -23 -39 0
4 12 21 0
-4 -12 -21 0
4 22 26 0
-4 -22 -26 0
4 23 40 0
-4 -23 -40 0
5 13 21 0
-5 -13 -21 0
5 22 27 0
-5 -22 -27 0
5 23 41 0
-5 -23 -41 0
6 14 21 0
-6 -14 -21 0
6 22 28 0
-6 -22 -28 0
6 23 42 0
-6 -23 -42 0
1 7 20 0
-1 -7 -20 0
7 15 21 0
-7 -15 -21 0
7 22 29 0
-7 -22 -29 0
7 23 43 0
-7 -23 -43 0
2 8 20 0
-2 -8 -20 0
8 16 21 0
-8 -16 -21 0
8 22 30 0
-8 -22 -30 0
8 23 44 0
-8 -23 -44 0
3 9 20 0
-3 -9 -20 0
9 17 21 0
-9 -17 -21 0
9 22 31 0
-9 -22 -31 0
9 23 45 0
-9 -23 -45 0
4 10 20 0
-4 -10 -20 0
10 18 21 0
-10 -18 -21 0
10 22 32 0
-10 -22 -32 0
10 23 46 0
-10 -23 -46 0
5 11 20 0
-5 -11 -20 0
11 19 21 0
-11 -19 -21 0
11 22 33 0
-11 -22 -33 0
11 23 47 0
-11 -23 -47 0
6 12 20 0
-6 -12 -20 0
12 20 21 0
-12 -20 -21 0
12 22 34 0
-12 -22 -34 0
12 23 48 0
-12 -23 -48 0
7 13 20 0
-7 -13 -20 0
13 21 0
-13 -21 0
13 22 35 0
-13 -22 -35 0
13 23 49 0
-13 -23 -49 0
8 14 20 0
-8 -14 -20 0
14 21 22 0
-14 -21 -22 0
14 22 36 0
-14 -22 -36 0
14 23 50 0
-14 -23 -50 0
9 15 20 0
-9 -15 -20 0
15 21 23 0
-15 -21 -23 0
15 22 37 0
-15 -22 -37 0
15 23 51 0
-15 -23 -51 0
10 16 20 0
-10 -16 -20 0
16 21 24 0
-16 -21 -24 0
16 22 38 0
-16 -22 -38 0
16 23 52 0
-16 -23 -52 0
11 17 20 0
-11 -17 -20 0
17 21 25 0
-17 -21 -25 0
17 22 39 0
-17 -22 -39 0
12 18 20 0
-12 -18 -20 0
18 21 26 0
-18 -21 -26 0
18 22 40 0
-18 -22 -40 0
13 19 20 0
-13 -19 -20 0
19 21 27 0
-19 -21 -27 0
19 22 41 0
-19 -22 -41 0
14 20 0
-14 -20 0
20 21 28 0
-20 -21 -28 0
20 22 42 0
-20 -22 -42 0
1 19 21 0
-1 -19 -21 0
15 20 21 0
-15 -20 -21 0
21 29 0
-21 -29 0
21 22 43 0
-21 -22 -43 0
2 19 22 0
-2 -19 -22 0
16 20 22 0
-16 -20 -22 0
21 22 30 0
-21 -22 -30 0
22 44 0
-22 -44 0
3 19 23 0
-3 -19 -23 0
17 20 23 0
-17 -20 -23 0
21 23 31 0
-21 -23 -31 0
22 23 45 0
-22 -23 -45 0
4 19 24 0
-4 -19 -24 0
18 20 24 0
-18 -20 -24 0
21 24 32 0
-21 -24 -32 0
22 24 46 0
-22 -24 -46 0
5 19 25 0
-5 -19 -25 0
19 20 25 0
-19 -20 -25 0
21 25 33 0
-21 -25 -33 0
22 25 47 0
-22 -25 -47 0
6 19 26 0
-6 -19 -26 0
20 26 0
-20 -26 0
21 26 34 0
-21 -26 -34 0
22 26 48 0
-22 -26 -48 0
7 19 27 0
-7 -19 -27 0
20 21 27 0
-20 -21 -27 0
21 27 35 0
-21 -27 -35 0
22 27 49 0
-22 -27 -49 0
8 19 28 0
-8 -19 -28 0
20 22 28 0
-20 -22 -28 0
21 28 36 0
-21 -28 -36 0
22 28 50 0
-22 -28 -50 0
9 19 29 0
-9 -19 -29 0
20 23 29 0
-20 -23 -29 0
21 29 37 0
-21 -29 -37 0
22 29 51 0
-22 -29 -51 0
10 19 30 0
-10 -19 -30 0
20 24 30 0
-20 -24 -30 0
21 30 38 0
-21 -30 -38 0
22 30 52 0
-22 -30 -52 0
11 19 31 0
-11 -19 -31 0
20 25 31 0
-20 -25 -31 0
21 31 39 0
-21 -31 -39 0
12 19 32 0
-12 -19 -32 0
20 26 32 0
-20 -26 -32 0
21 32 40 0
-21 -32 -40 0
13 19 33 0
-13 -19 -33 0
20 27 33 0
-20 -27 -33 0
21 33 41 0
-21 -33 -41 0
14 19 34 0
-14 -19 -34 0
20 28 34 0
-20 -28 -34 0
21 34 42 0
-21 -34 -42 0
1 18 35 0
-1 -18 -35 0
15 19 35 0
-15 -19 -35 0
20 29 35 0
-20 -29 -35 0
21 35 43 0
-21 -35 -43 0
2 18 36 0
-2 -18 -36 0
16 19 36 0
-16 -19 -36 0
20 30 36 0
-20 -30 -36 0
21 36 44 0
-21 -36 -44 0
3 18 37 0
-3 -18 -37 0
17 19 37 0
-17 -19 -37 0
20 31 37 0
-20 -31 -37 0
21 37 45 0
-21 -37 -45 0
4 18 38 0
-4 -18 -38 0
18 19 38 0
-18 -19 -38 0
20 32 38 0
-20 -32 -38 0
21 38 46 0
-21 -38 -46 0
5 18 39 0
-5 -18 -39 0
19 39 0
-19 -39 0
20 33 39 0
-20 -33 -39 0
21 39 47 0
-21 -39 -47 0
6 18 40 0
-6 -18 -40 0
19 20 40 0
-19 -20 -40 0
20 34 40 0
-20 -34 -40 0
21 40 48 0
-21 -40 -48 0
7 18 41 0
-7 -18 -41 0
19 21 41 0
-19 -21 -41 0
20 35 41 0
-20 -35 -41 0
21 41 49 0
-21 -41 -49 0
8 18 42 0
-8 -18 -42 0
19 22 42 0
-19 -22 -42 0
20 36 42 0
-20 -36 -42 0
21 42 50 0
-21 -42 -50 0
9 18 43 0
-9 -18 -43 0
19 23 43 0
-19 -23 -43 0
20 37 43 0
-20 -37 -43 0
21 43 51 0
-21 -43 -51 0
10 18 44 0
-10 -18 -44 0
19 24 44 0
-19 -24 -44 0
20 38 44 0
-20 -38 -44 0
21 44 52 0
-21 -44 -52 0
11 18 45 0
-11 -18 -45 0
19 25 45 0
-19 -25 -45 0
20 39 45 0
-20 -39 -45 0
12 18 46 0
-12 -18 -46 0
19 26 46 0
-19 -26 -46 0
20 40 46 0
-20 -40 -46 0
13 18 47 0
-13 -18 -47 0
19 27 47 0
-19 -27 -47 0
20 41 47 0
-20 -41 -47 0
14 18 48 0
-14 -18 -48 0
19 28 48 0
-19 -28 -48 0
20 42 48 0
-20 -42 -48 0
1 17 49 0
-1 -17 -49 0
15 18 49 0
-15 -18 -49 0
19 29 49 0
-19 -29 -49 0
20 43 49 0
-20 -43 -49 0
2 17 50 0
-2 -17 -50 0
16 18 50 0
-16 -18 -50 0
19 30 50 0
-19 -30 -50 0
20 44 50 0
-20 -44 -50 0
3 17 51 0
-3 -17 -51 0
17 18 51 0
-17 -18 -51 0
19 31 51 0
-19 -31 -51 0
20 45 51 0
-20 -45 -51 0
4 17 52 0
-4 -17 -52 0
18 52 0
-18 -52 0
19 32 52 0
-19 -32 -52 0
20 46 52 0
-20 -46 -52 0
