certificates/rado_a14_c286_N52.drat
20 -48 -50 -51 18 0
-20 -51 -52 0
23 1 20 -51 0
-51 -52 0
d -20 -51 -52 0
20 -52 0
-17 -52 0
d -17 -4 -52 0
-52 0
18 0
-20 0
14 0
26 0
46 0
-48 0
-21 0
-12 0
-19 0
42 0
23 0
13 0
28 0
29 0
27 0
0
